XSym
0018
c4755e972db5601a6ecb764a7fff69f0
../jre/bin/pack200
                                                                                                                                                                                                                                                                                                                                                                                                                                                                                                                                                                                                                                                                                                                                                                                                                                                                                                                                                                                                                                             